NAME : n100w180.001.602.tour
COMMENT : Length = 602
COMMENT : Found by LKH [Keld Helsgaun] Tue May  2 05:19:10 2017
TYPE : TOUR
DIMENSION : 101
TOUR_SECTION
1
12
66
7
36
35
88
47
56
18
68
69
51
94
17
86
96
28
76
5
95
30
74
87
80
26
57
61
92
62
77
82
32
4
91
85
39
6
10
72
49
20
43
78
54
65
83
60
42
98
21
90
73
50
45
8
55
37
71
46
58
16
81
38
24
75
100
48
19
11
34
79
70
15
33
29
22
53
44
2
41
14
9
25
93
67
89
63
23
13
27
64
40
84
52
3
31
101
99
59
97
-1
EOF
